c User generated cnf file
p cnf 6 30
3 6 -4 0 
-4 1 6 0 
6 6 -6 0 
4 -2 5 0 
-6 4 5 0 
5 -5 3 0 
3 2 -5 0 
2 3 -1 0 
-2 4 5 0 
3 -3 2 0 
1 5 -4 0 
3 3 -4 0 
5 3 -5 0 
3 -4 2 0 
2 2 -2 0 
4 6 -4 0 
6 -1 5 0 
4 -4 5 0 
2 5 -3 0 
3 -4 2 0 
6 2 -5 0 
2 2 -1 0 
-5 1 5 0 
3 5 -4 0 
4 -6 5 0 
-5 5 3 0 
2 -4 2 0 
-1 5 6 0 
5 -1 2 0 
5 -3 1 0 
